c uprop, v00.0, 
c reading from data/prog571.c.cnf
c done reading: 0.004133
p cnf 86 199
-42 -64 0
42 64 0
-43 64 0
43 -64 0
42 -47 0
-42 47 0
-42 -48 0
42 48 0
47 -49 0
-47 49 0
-47 -51 0
47 51 0
49 -53 0
-49 53 0
-40 -49 0
40 49 0
53 -54 0
-53 54 0
-53 -55 0
53 55 0
54 -56 0
-54 56 0
-54 -57 0
54 57 0
-38 56 0
38 -56 0
-37 -56 0
37 56 0
-36 64 0
36 -64 0
-45 64 0
45 -64 0
-34 64 0
34 -64 0
-50 64 0
50 -64 0
-32 -64 0
-32 -36 0
32 36 64 0
-31 36 64 0
-31 -36 -64 0
31 36 -64 0
31 -36 64 0
-30 32 0
-30 -45 0
30 -32 45 0
-29 -32 45 0
-29 32 -45 0
29 32 45 0
29 -32 -45 0
-28 30 0
-28 -34 0
28 -30 34 0
-27 -30 34 0
-27 30 -34 0
27 30 34 0
27 -30 -34 0
28 -39 0
-39 -50 0
-28 39 50 0
-26 -28 50 0
-26 28 -50 0
26 28 50 0
26 -28 -50 0
-25 39 0
25 -39 0
-39 -41 0
39 41 0
25 -58 0
-25 58 0
-25 -59 0
25 59 0
-46 58 0
46 -58 0
-58 -60 0
58 60 0
46 -61 0
-46 61 0
-46 -62 0
46 62 0
61 -63 0
-61 63 0
-61 -65 0
61 65 0
63 -66 0
-63 66 0
-63 -67 0
63 67 0
66 -68 0
-66 68 0
-66 -69 0
66 69 0
68 -70 0
-68 70 0
-68 -71 0
68 71 0
-72 -73 0
72 73 0
73 -74 0
-73 74 0
72 -75 0
-72 75 0
-72 -76 0
72 76 0
-35 75 0
35 -75 0
-75 -77 0
75 77 0
35 -78 0
-35 78 0
-35 -79 0
35 79 0
78 -80 0
-78 80 0
-78 -81 0
78 81 0
80 -82 0
-80 82 0
-80 -83 0
80 83 0
82 -84 0
-82 84 0
-82 -85 0
82 85 0
73 -86 0
-73 86 0
-52 73 0
52 -73 0
-24 -73 0
24 73 0
-23 73 0
23 -73 0
-22 24 0
22 -24 0
-21 -24 0
21 24 0
-20 22 0
-20 -86 0
20 -22 86 0
-19 -22 86 0
-19 22 -86 0
19 22 86 0
19 -22 -86 0
-18 20 0
-18 -52 0
18 -20 52 0
-17 -20 52 0
-17 20 -52 0
17 20 52 0
17 -20 -52 0
-16 18 0
16 -18 0
-15 -18 0
15 18 0
16 -44 0
-16 44 0
-14 -16 0
14 16 0
-13 44 0
13 -44 0
-12 -44 0
12 44 0
-11 13 0
11 -13 0
-10 -13 0
10 13 0
-9 11 0
9 -11 0
-8 -11 0
8 11 0
-7 9 0
7 -9 0
-6 -9 0
6 9 0
-5 7 0
5 -7 0
-4 -7 0
4 7 0
-3 5 0
3 -5 0
-2 -5 0
2 5 0
-1 64 0
-1 73 0
1 -64 -73 0
-64 -73 0
64 73 0
-1 33 -36 0
-33 36 0
1 -33 36 0
1 -33 0
33 -36 0
-1 33 0
-33 -45 0
33 45 0
-34 -86 0
34 86 0
-50 -52 0
50 52 0
